100
100
3000 3000 3000 3000 3000 3000 3000 3000 3000 3000 3000 3000 3000 3000 3000 3000 3000 3000 3000 3000 3000 3000 3000 3000 3000 3000 3000 3000 3000 3000 3000 3000 3000 3000 3000 3000 3000 3000 3000 3000 3000 3000 3000 3000 3000 3000 3000 3000 3000 3000 3000 3000 3000 3000 3000 3000 3000 3000 3000 3000 3000 3000 3000 3000 3000 3000 3000 3000 3000 3000 3000 3000 3000 3000 3000 3000 3000 3000 3000 3000 3000 3000 3000 3000 3000 3000 3000 3000 3000 3000 3000 3000 3000 3000 3000 3000 3000 3000 3000 3000
0 5 1
0 10 4
0 44 2
0 51 4
0 61 0
0 62 0
0 68 4
0 76 2
0 84 0
0 93 2
1 19 0
1 27 3
1 36 0
1 37 3
1 47 3
1 65 2
1 67 1
1 70 2
1 71 2
1 74 4
2 4 2
2 12 2
2 14 4
2 16 4
2 23 3
2 24 3
2 31 2
2 41 2
2 61 1
2 69 4
3 4 2
3 17 0
3 19 1
3 23 1
3 32 2
3 33 4
3 37 3
3 58 2
3 59 1
3 60 2
4 10 0
4 12 0
4 49 0
4 50 1
4 54 1
4 55 0
4 74 4
4 83 4
4 86 2
4 87 3
5 40 2
5 44 1
5 53 3
5 56 3
5 59 3
5 63 0
5 78 4
5 83 1
5 89 2
5 92 2
6 16 1
6 21 4
6 39 1
6 40 2
6 52 3
6 56 2
6 57 3
6 60 1
6 72 1
6 75 2
7 27 4
7 30 3
7 45 3
7 49 4
7 66 4
7 79 1
7 84 0
7 85 2
7 92 1
7 93 3
8 1 1
8 2 2
8 5 3
8 26 1
8 40 3
8 43 3
8 51 3
8 54 1
8 60 3
8 65 1
9 0 2
9 4 2
9 7 4
9 31 0
9 45 2
9 72 1
9 80 1
9 83 3
9 87 3
9 90 4
10 19 2
10 29 1
10 40 4
10 51 0
10 58 3
10 63 1
10 64 4
10 67 2
10 71 2
10 75 0
11 16 2
11 17 1
11 26 4
11 28 1
11 34 0
11 39 1
11 67 1
11 82 2
11 89 0
11 91 4
12 4 3
12 27 2
12 41 0
12 56 0
12 59 0
12 64 2
12 87 2
12 89 4
12 96 2
12 98 0
13 24 3
13 32 0
13 42 1
13 80 2
13 83 4
13 93 1
13 95 2
13 97 2
13 98 4
13 99 0
14 18 4
14 34 2
14 62 2
14 67 1
14 70 1
14 72 4
14 77 0
14 94 0
14 97 3
14 98 4
15 3 0
15 6 1
15 51 2
15 57 0
15 58 1
15 65 3
15 87 2
15 91 4
15 93 1
15 94 3
16 26 1
16 27 4
16 31 2
16 33 0
16 39 1
16 47 2
16 49 4
16 51 4
16 62 1
16 72 4
17 1 4
17 10 2
17 24 3
17 26 2
17 50 3
17 57 2
17 77 4
17 79 1
17 93 0
17 95 0
18 7 1
18 8 3
18 22 3
18 56 3
18 71 1
18 73 3
18 88 4
18 90 0
18 92 2
18 93 0
19 18 0
19 22 2
19 36 0
19 37 4
19 67 3
19 71 1
19 72 3
19 84 3
19 89 4
19 93 3
20 0 3
20 4 0
20 17 2
20 21 3
20 27 4
20 64 3
20 82 3
20 86 0
20 87 4
20 92 0
21 17 0
21 32 4
21 48 4
21 65 2
21 67 2
21 74 2
21 76 0
21 80 2
21 84 1
21 85 0
22 6 2
22 7 4
22 12 3
22 25 2
22 30 2
22 31 3
22 33 1
22 35 4
22 50 2
22 53 3
23 28 0
23 39 4
23 41 1
23 44 4
23 50 4
23 52 0
23 66 3
23 74 1
23 76 4
23 85 0
24 5 4
24 10 3
24 14 1
24 15 3
24 18 0
24 20 0
24 24 1
24 27 1
24 35 2
24 41 1
25 13 4
25 23 4
25 24 2
25 31 2
25 37 1
25 62 2
25 63 2
25 68 4
25 74 4
25 80 0
26 0 1
26 6 3
26 20 4
26 23 4
26 57 3
26 74 3
26 75 4
26 78 3
26 90 0
26 92 1
27 9 1
27 20 0
27 25 2
27 38 1
27 72 2
27 75 3
27 76 1
27 87 3
27 88 3
27 90 0
28 1 1
28 10 3
28 11 0
28 22 3
28 35 1
28 41 3
28 47 2
28 56 3
28 84 1
28 88 2
29 1 3
29 15 0
29 24 4
29 45 4
29 60 2
29 62 1
29 65 2
29 66 4
29 75 0
29 78 3
30 14 1
30 26 1
30 34 4
30 36 0
30 42 0
30 44 3
30 51 3
30 65 0
30 67 0
30 81 2
31 8 4
31 13 1
31 42 0
31 55 1
31 63 0
31 77 3
31 89 2
31 94 0
31 98 2
31 99 4
32 17 2
32 20 2
32 37 1
32 48 2
32 54 2
32 71 4
32 78 4
32 92 4
32 96 3
32 97 2
33 11 4
33 40 0
33 43 1
33 46 0
33 50 2
33 53 0
33 79 1
33 81 4
33 85 0
33 90 1
34 18 2
34 25 4
34 35 2
34 85 4
34 94 4
34 95 4
34 96 4
34 97 0
34 98 2
34 99 4
35 0 0
35 1 3
35 11 3
35 21 4
35 34 0
35 36 3
35 47 2
35 55 3
35 59 3
35 81 0
36 18 0
36 21 4
36 31 0
36 35 2
36 43 0
36 68 0
36 74 4
36 80 1
36 84 0
36 85 4
37 3 1
37 4 0
37 11 1
37 12 4
37 16 0
37 27 3
37 34 3
37 40 1
37 41 3
37 51 3
38 3 3
38 7 0
38 13 4
38 29 3
38 45 4
38 47 2
38 58 0
38 85 4
38 87 4
38 88 2
39 33 1
39 35 1
39 43 3
39 46 2
39 55 2
39 66 1
39 73 0
39 91 0
39 94 3
39 99 2
40 4 0
40 11 4
40 18 3
40 20 0
40 21 4
40 32 1
40 40 0
40 44 3
40 45 0
40 72 1
41 4 2
41 8 4
41 11 4
41 35 0
41 43 2
41 47 2
41 55 3
41 77 0
41 78 1
41 82 1
42 3 3
42 6 1
42 9 4
42 33 2
42 55 2
42 78 1
42 79 3
42 80 1
42 91 0
42 93 4
43 2 1
43 16 2
43 17 4
43 23 4
43 39 0
43 42 3
43 46 2
43 65 3
43 69 3
43 90 2
44 70 1
44 73 0
44 75 1
44 87 2
44 94 0
44 95 3
44 96 2
44 97 2
44 98 0
44 99 1
45 3 0
45 12 4
45 25 1
45 33 0
45 72 4
45 76 2
45 79 1
45 81 1
45 86 4
45 88 3
46 9 3
46 49 1
46 75 1
46 77 2
46 78 2
46 81 4
46 82 0
46 86 2
46 88 3
46 92 1
47 0 2
47 1 2
47 14 1
47 69 3
47 76 2
47 83 4
47 92 4
47 95 2
47 97 3
47 99 3
48 18 1
48 19 3
48 24 3
48 32 1
48 47 2
48 52 1
48 54 1
48 57 3
48 60 1
48 66 1
49 5 2
49 6 1
49 13 0
49 22 3
49 25 0
49 29 2
49 33 3
49 43 3
49 72 1
49 77 4
50 30 1
50 45 4
50 49 0
50 56 4
50 70 2
50 83 3
50 90 3
50 92 3
50 94 2
50 95 2
51 0 1
51 5 4
51 11 0
51 12 2
51 15 1
51 25 1
51 37 0
51 39 2
51 49 0
51 66 2
52 10 2
52 12 3
52 24 3
52 33 0
52 39 1
52 46 2
52 82 2
52 86 4
52 87 2
52 96 0
53 8 0
53 14 0
53 18 2
53 20 1
53 27 3
53 37 3
53 40 1
53 44 0
53 53 4
53 68 4
54 8 0
54 14 3
54 15 4
54 16 4
54 17 0
54 29 3
54 44 4
54 48 0
54 58 4
54 61 4
55 6 0
55 7 1
55 13 4
55 20 0
55 21 3
55 32 2
55 38 3
55 41 4
55 42 1
55 45 4
56 1 0
56 9 1
56 28 1
56 29 3
56 47 1
56 73 4
56 82 1
56 83 1
56 84 2
56 96 2
57 10 3
57 18 3
57 29 2
57 31 0
57 36 3
57 51 4
57 76 4
57 78 1
57 91 0
57 95 4
58 7 3
58 14 1
58 25 1
58 26 4
58 28 2
58 29 1
58 32 0
58 37 3
58 38 3
58 52 3
59 3 4
59 6 4
59 28 0
59 34 1
59 38 4
59 51 0
59 55 3
59 62 2
59 64 1
59 89 1
60 9 1
60 19 4
60 22 0
60 30 3
60 51 4
60 71 4
60 75 0
60 76 0
60 78 1
60 91 1
61 21 4
61 23 3
61 27 4
61 31 1
61 43 3
61 50 1
61 56 1
61 61 4
61 69 2
61 74 4
62 19 0
62 60 1
62 65 3
62 79 0
62 80 1
62 88 3
62 96 2
62 97 2
62 98 4
62 99 1
63 19 1
63 21 0
63 37 0
63 38 1
63 47 0
63 56 2
63 71 2
63 79 2
63 81 4
63 82 1
64 8 2
64 26 1
64 34 0
64 45 0
64 52 2
64 60 3
64 68 0
64 81 1
64 82 1
64 95 4
65 0 3
65 9 2
65 15 4
65 16 3
65 37 0
65 44 1
65 48 1
65 57 0
65 61 2
65 64 0
66 2 2
66 14 3
66 15 3
66 28 3
66 30 2
66 44 1
66 52 3
66 54 0
66 58 1
66 73 0
67 12 1
67 19 0
67 53 0
67 56 3
67 57 0
67 70 2
67 93 0
67 97 3
67 98 1
67 99 0
68 11 1
68 28 2
68 34 4
68 40 3
68 46 1
68 54 0
68 55 4
68 63 4
68 69 2
68 74 1
69 7 1
69 13 1
69 15 2
69 31 4
69 38 3
69 39 2
69 59 0
69 64 4
69 65 0
69 69 2
70 7 3
70 12 3
70 40 3
70 48 1
70 50 3
70 53 2
70 67 4
70 68 3
70 71 2
70 73 3
71 3 4
71 5 1
71 31 1
71 42 4
71 46 0
71 77 2
71 82 1
71 86 3
71 88 3
71 89 3
72 22 0
72 26 2
72 30 0
72 55 3
72 58 1
72 62 0
72 70 3
72 74 4
72 85 3
72 86 4
73 10 0
73 11 2
73 16 0
73 20 0
73 48 1
73 66 2
73 75 2
73 83 3
73 84 0
73 96 2
74 7 1
74 41 3
74 47 4
74 55 2
74 57 3
74 78 4
74 79 3
74 91 1
74 98 0
74 99 1
75 16 2
75 19 4
75 36 3
75 38 3
75 42 0
75 48 0
75 61 1
75 66 2
75 71 0
75 72 3
76 2 2
76 15 0
76 28 3
76 49 2
76 50 1
76 60 4
76 62 2
76 64 4
76 69 2
76 77 3
77 6 0
77 9 3
77 17 1
77 23 2
77 25 3
77 45 4
77 56 1
77 57 4
77 73 4
77 75 3
78 8 1
78 14 3
78 30 2
78 39 3
78 44 0
78 49 1
78 63 0
78 68 0
78 76 1
78 85 0
79 2 0
79 8 2
79 22 1
79 34 2
79 36 2
79 46 1
79 49 4
79 52 2
79 63 1
79 70 2
80 2 2
80 6 2
80 8 1
80 9 0
80 38 3
80 53 1
80 69 4
80 70 3
80 73 1
80 83 4
81 0 2
81 15 0
81 17 4
81 20 0
81 21 2
81 30 4
81 48 4
81 53 3
81 59 0
81 61 4
82 22 4
82 32 2
82 46 4
82 59 0
82 79 1
82 88 1
82 89 1
82 91 4
82 94 4
82 96 0
83 8 2
83 17 3
83 41 4
83 52 2
83 77 0
83 82 0
83 84 4
83 89 2
83 97 2
83 98 0
84 9 2
84 22 4
84 46 3
84 53 0
84 54 0
84 58 2
84 64 0
84 71 0
84 84 2
84 86 1
85 10 0
85 25 2
85 32 3
85 52 0
85 60 1
85 76 2
85 90 4
85 91 4
85 94 1
85 95 1
86 33 0
86 35 0
86 42 2
86 64 3
86 70 4
86 86 1
86 92 4
86 93 0
86 97 2
86 99 2
87 2 3
87 29 0
87 36 1
87 57 3
87 61 2
87 62 4
87 68 4
87 86 0
87 89 3
87 94 0
88 2 4
88 43 3
88 54 3
88 61 0
88 63 2
88 67 1
88 68 4
88 79 1
88 81 1
88 90 4
89 4 1
89 5 1
89 10 3
89 20 1
89 35 4
89 42 3
89 46 4
89 58 2
89 61 0
89 63 2
90 0 4
90 3 1
90 7 2
90 12 3
90 14 0
90 22 0
90 24 1
90 26 4
90 38 3
90 43 0
91 1 2
91 5 1
91 13 0
91 23 2
91 30 3
91 39 1
91 50 2
91 52 3
91 65 4
91 73 2
92 6 1
92 24 0
92 28 3
92 34 2
92 36 1
92 38 2
92 63 0
92 66 1
92 68 3
92 80 4
93 1 0
93 2 4
93 3 1
93 4 3
93 13 4
93 21 2
93 45 2
93 66 4
93 70 4
93 73 1
94 5 1
94 26 2
94 32 1
94 41 0
94 43 2
94 48 3
94 54 2
94 59 1
94 60 4
94 69 2
95 0 0
95 3 1
95 5 3
95 18 3
95 29 0
95 36 1
95 81 2
95 85 1
95 87 4
95 88 3
96 13 2
96 16 2
96 23 2
96 27 3
96 28 2
96 33 3
96 50 0
96 54 1
96 64 4
96 69 0
97 2 0
97 11 0
97 15 1
97 19 1
97 23 2
97 25 0
97 29 3
97 59 3
97 62 4
97 81 1
98 1 3
98 9 2
98 30 2
98 35 3
98 42 4
98 48 4
98 53 1
98 58 1
98 59 3
98 80 3
99 13 2
99 49 3
99 67 0
99 77 3
99 80 4
99 83 4
99 90 3
99 91 1
99 95 2
99 96 1
